cases/matpower/case6.m
ipopt
SOCW
[info | PowerModels]: removing 3 cost terms from generator 6: Float64[]
[info | PowerModels]: removing 3 cost terms from generator 3: Float64[]
[warn | PowerModels]: multiple reference buses found, [4, 1], this can cause infeasibility if they are in the same connected component

******************************************************************************
This program contains Ipopt, a library for large-scale nonlinear optimization.
 Ipopt is released as open source code under the Eclipse Public License (EPL).
         For more information visit http://projects.coin-or.org/Ipopt
******************************************************************************

This is Ipopt version 3.13.2, running with linear solver mumps.
NOTE: Other linear solvers might be more efficient (see Ipopt documentation).

Number of nonzeros in equality constraint Jacobian...:      130
Number of nonzeros in inequality constraint Jacobian.:      108
Number of nonzeros in Lagrangian Hessian.............:       46

Total number of variables............................:       52
                     variables with only lower bounds:        0
                variables with lower and upper bounds:       52
                     variables with only upper bounds:        0
Total number of equality constraints.................:       36
Total number of inequality constraints...............:       42
        inequality constraints with only lower bounds:       18
   inequality constraints with lower and upper bounds:        0
        inequality constraints with only upper bounds:       24

iter    objective    inf_pr   inf_du lg(mu)  ||d||  lg(rg) alpha_du alpha_pr  ls
   0  1.2789987e+01 1.09e+00 1.66e+01  -1.0 0.00e+00    -  0.00e+00 0.00e+00   0
   1  3.0621142e+01 1.08e+00 1.67e+01  -1.0 1.96e+00    -  6.17e-03 9.68e-03h  1
   2  1.8777966e+02 1.01e+00 1.55e+01  -1.0 1.86e+00    -  2.38e-02 6.17e-02h  1
   3  3.6578334e+02 9.59e-01 1.48e+01  -1.0 1.72e+00    -  2.11e-01 5.29e-02h  1
   4  7.4781894e+03 2.22e-01 4.65e+01  -1.0 1.64e+00    -  1.99e-01 7.69e-01h  1
   5  9.8620462e+03 8.89e-02 2.12e+01  -1.0 3.73e-01    -  5.55e-01 6.31e-01h  1
   6  1.0053420e+04 7.65e-02 1.43e+01  -1.0 2.04e-01    -  4.32e-01 1.26e-01h  1
   7  1.1453533e+04 1.54e-02 1.89e+01  -1.0 2.13e-01    -  3.46e-01 1.00e+00h  1
   8  1.1471638e+04 1.73e-03 1.19e+00  -1.0 7.24e-02    -  9.90e-01 8.33e-01h  1
   9  1.1476780e+04 3.96e-16 4.90e-02  -1.0 3.85e-02    -  1.00e+00 1.00e+00h  1
iter    objective    inf_pr   inf_du lg(mu)  ||d||  lg(rg) alpha_du alpha_pr  ls
  10  1.1472440e+04 3.48e-05 8.18e-02  -2.5 2.52e-02    -  9.55e-01 9.88e-01f  1
  11  1.1472436e+04 4.37e-16 7.02e-03  -2.5 1.56e-02    -  1.00e+00 1.00e+00f  1
  12  1.1472347e+04 3.48e-06 2.94e-02  -3.8 7.46e-03    -  9.46e-01 1.00e+00h  1
  13  1.1472352e+04 3.12e-16 1.95e-03  -3.8 3.06e-03    -  1.00e+00 1.00e+00h  1
  14  1.1472353e+04 3.85e-16 4.34e-05  -3.8 4.66e-04    -  1.00e+00 1.00e+00h  1
  15  1.1472347e+04 2.78e-16 7.34e-06  -5.7 2.49e-04    -  1.00e+00 1.00e+00f  1
  16  1.1472347e+04 2.43e-16 1.10e-08  -8.6 7.42e-06    -  1.00e+00 1.00e+00h  1
  17  1.1472347e+04 3.09e-16 4.58e-13  -9.0 6.20e-09    -  1.00e+00 1.00e+00h  1

Number of Iterations....: 17

                                   (scaled)                 (unscaled)
Objective...............:   2.2944694752993091e+03    1.1472347376496546e+04
Dual infeasibility......:   4.5807977674637686e-13    2.2903988837318843e-12
Constraint violation....:   3.0878077872387166e-16    3.0878077872387166e-16
Complementarity.........:   9.0909228020113231e-10    4.5454614010056615e-09
Overall NLP error.......:   9.0909228020113231e-10    4.5454614010056615e-09


Number of objective function evaluations             = 18
Number of objective gradient evaluations             = 18
Number of equality constraint evaluations            = 18
Number of inequality constraint evaluations          = 18
Number of equality constraint Jacobian evaluations   = 18
Number of inequality constraint Jacobian evaluations = 18
Number of Lagrangian Hessian evaluations             = 17
Total CPU secs in IPOPT (w/o function evaluations)   =      0.289
Total CPU secs in NLP function evaluations           =      0.210

EXIT: Optimal Solution Found.
Time to Solution........:1.2370588779449463
cases/matpower/case6.m
ipopt
QCRM
[info | PowerModels]: removing 3 cost terms from generator 6: Float64[]
[info | PowerModels]: removing 3 cost terms from generator 3: Float64[]
[warn | PowerModels]: multiple reference buses found, [4, 1], this can cause infeasibility if they are in the same connected component

******************************************************************************
This program contains Ipopt, a library for large-scale nonlinear optimization.
 Ipopt is released as open source code under the Eclipse Public License (EPL).
         For more information visit http://projects.coin-or.org/Ipopt
******************************************************************************

This is Ipopt version 3.13.2, running with linear solver mumps.
NOTE: Other linear solvers might be more efficient (see Ipopt documentation).

Number of nonzeros in equality constraint Jacobian...:      180
Number of nonzeros in inequality constraint Jacobian.:      390
Number of nonzeros in Lagrangian Hessian.............:       58

Total number of variables............................:       94
                     variables with only lower bounds:        0
                variables with lower and upper bounds:       88
                     variables with only upper bounds:        0
Total number of equality constraints.................:       50
Total number of inequality constraints...............:      150
        inequality constraints with only lower bounds:       72
   inequality constraints with lower and upper bounds:        0
        inequality constraints with only upper bounds:       78

iter    objective    inf_pr   inf_du lg(mu)  ||d||  lg(rg) alpha_du alpha_pr  ls
   0  1.2789987e+01 1.09e+00 1.46e+01  -1.0 0.00e+00    -  0.00e+00 0.00e+00   0
   1  1.4036627e+02 1.03e+00 2.18e+01  -1.0 1.77e+00    -  5.89e-03 5.44e-02h  1
   2  9.1285620e+02 8.42e-01 2.39e+01  -1.0 1.77e+00    -  1.39e-02 1.83e-01h  1
   3  1.4257637e+03 7.60e-01 1.86e+01  -1.0 1.44e+00    -  1.91e-01 9.75e-02h  1
   4  4.2534144e+03 4.58e-01 1.49e+01  -1.0 1.31e+00    -  2.77e-01 3.98e-01h  1
   5  7.9417983e+03 1.94e-01 5.78e+00  -1.0 7.87e-01    -  6.00e-01 5.76e-01h  1
   6  9.3753718e+03 1.10e-01 5.02e+00  -1.0 3.16e-01    -  3.41e-01 4.32e-01h  1
   7  9.8409862e+03 8.48e-02 1.48e+01  -1.0 1.93e-01    -  5.89e-01 2.32e-01h  1
   8  1.0399832e+04 5.51e-02 2.30e+01  -1.0 1.72e-01    -  9.12e-01 3.50e-01h  1
   9  1.1111991e+04 1.86e-02 2.69e+01  -1.0 1.91e-01    -  9.92e-01 6.63e-01h  1
iter    objective    inf_pr   inf_du lg(mu)  ||d||  lg(rg) alpha_du alpha_pr  ls
  10  1.1496637e+04 1.20e-15 4.94e-01  -1.0 6.79e-02    -  1.00e+00 1.00e+00h  1
  11  1.1489175e+04 1.59e-04 9.62e-01  -1.7 1.49e-02    -  1.00e+00 9.72e-01f  1
  12  1.1487545e+04 1.35e-15 2.33e-02  -1.7 5.79e-03    -  1.00e+00 1.00e+00f  1
  13  1.1484799e+04 7.16e-05 3.26e+00  -3.8 9.89e-03    -  7.91e-01 9.70e-01f  1
  14  1.1484260e+04 7.09e-06 1.67e-01  -3.8 5.20e-03    -  9.81e-01 9.94e-01f  1
  15  1.1484183e+04 5.47e-16 1.15e-03  -3.8 1.93e-03    -  1.00e+00 1.00e+00f  1
  16  1.1484152e+04 8.05e-16 1.24e-01  -5.7 3.74e-04    -  7.88e-01 9.93e-01f  1
  17  1.1484151e+04 1.26e-15 5.38e-07  -5.7 1.21e-04    -  1.00e+00 1.00e+00f  1
  18  1.1484151e+04 6.11e-16 9.39e-06  -8.6 3.90e-06    -  9.98e-01 1.00e+00h  1
  19  1.1484151e+04 7.54e-16 3.94e-13  -8.6 1.43e-05    -  1.00e+00 1.00e+00h  1

Number of Iterations....: 19

                                   (scaled)                 (unscaled)
Objective...............:   2.2968301088631265e+03    1.1484150544315631e+04
Dual infeasibility......:   3.9408152913622734e-13    1.9704076456811367e-12
Constraint violation....:   7.5373735031192268e-16    7.5373735031192268e-16
Complementarity.........:   2.5117419761991175e-09    1.2558709880995587e-08
Overall NLP error.......:   2.5117419761991175e-09    1.2558709880995587e-08


Number of objective function evaluations             = 20
Number of objective gradient evaluations             = 20
Number of equality constraint evaluations            = 20
Number of inequality constraint evaluations          = 20
Number of equality constraint Jacobian evaluations   = 20
Number of inequality constraint Jacobian evaluations = 20
Number of Lagrangian Hessian evaluations             = 19
Total CPU secs in IPOPT (w/o function evaluations)   =      0.262
Total CPU secs in NLP function evaluations           =      0.237

EXIT: Optimal Solution Found.
Time to Solution........:1.2739169597625732
